(set-logic QF_BV)
(declare-fun _substvar_131_ () (_ BitVec 8))
(declare-fun _substvar_117_ () (_ BitVec 8))
(declare-fun _substvar_114_ () (_ BitVec 8))
(declare-fun _substvar_136_ () (_ BitVec 16))
(declare-fun _substvar_58_ () (_ BitVec 8))
(assert (let ((?v_4 ((_ zero_extend 24) _substvar_58_)) (?v_2 ((_ zero_extend 24) _substvar_131_)) (?v_3 ((_ zero_extend 16) _substvar_136_))) (let ((?v_5 (bvadd ?v_3 (bvsub (_ bv4294967295 32) ?v_2)))) (let ((?v_0 (bvadd ?v_5 (bvsub (_ bv4294967295 32) ?v_4))) (?v_1 ((_ zero_extend 24) _substvar_117_))) (and true true (bvult ?v_0 (bvadd ?v_1 (_ bv1 32))) (= (bvadd (bvadd (bvadd ?v_0 (bvsub (_ bv4294967295 32) ?v_1)) (bvsub (_ bv4294967295 32) ((_ zero_extend 24) _substvar_114_))) (_ bv0 32)) (_ bv0 32)) true true true true true)))))
(check-sat)
(exit)
